c Result of efficient AIG-to-CNF conversion using package CNF
p cnf 205 707
2 -201 -3 -147 0
2 -201 -14 -147 0
-2 201 0
-2 147 0
-2 3 14 0
-3 4 10 12 13 0
3 -13 0
3 -4 0
3 -12 0
3 -10 0
-4 197 198 5 7 0
4 -197 0
4 -7 0
4 -5 0
4 -198 0
-5 189 195 196 6 0
5 -6 0
5 -196 0
5 -189 0
5 -195 0
-6 193 194 199 0
6 -193 0
6 -199 0
6 -194 0
-7 190 191 192 8 0
7 -8 0
7 -192 0
7 -190 0
7 -191 0
-8 185 186 9 0
8 -9 0
8 -186 0
8 -185 0
-9 181 182 187 188 0
9 -188 0
9 -187 0
9 -181 0
9 -182 0
-10 179 183 184 11 0
10 -11 0
10 -184 0
10 -179 0
10 -183 0
-11 177 178 0
11 -177 0
11 -178 0
-12 173 180 0
12 -173 0
12 -180 0
-13 174 175 176 0
13 -174 0
13 -176 0
13 -175 0
14 -200 -118 0
14 -15 -86 -118 0
-14 118 0
-14 200 86 0
-14 200 15 0
15 -16 -31 -46 -56 0
-15 16 0
-15 56 0
-15 46 0
-15 31 0
-16 201 17 0
-16 -201 24 0
16 -201 -24 0
16 201 -17 0
-17 202 21 0
-17 -202 18 0
17 -202 -18 0
17 202 -21 0
18 203 -19 0
18 -203 -20 0
-18 -203 20 0
-18 203 19 0
19 -184 -204 0
19 -183 204 0
-19 183 204 0
-19 184 -204 0
20 -186 -204 0
20 -185 204 0
-20 185 204 0
-20 186 -204 0
21 203 -22 0
21 -203 -23 0
-21 -203 23 0
-21 203 22 0
22 -180 -204 0
22 -179 204 0
-22 179 204 0
-22 180 -204 0
23 -182 -204 0
23 -181 204 0
-23 181 204 0
-23 182 -204 0
24 202 -25 0
24 -202 -28 0
-24 -202 28 0
-24 202 25 0
25 203 -26 0
25 -203 -27 0
-25 -203 27 0
-25 203 26 0
26 -188 -204 0
26 -187 204 0
-26 187 204 0
-26 188 -204 0
27 -190 -204 0
27 -189 204 0
-27 189 204 0
-27 190 -204 0
28 203 -29 0
28 -203 -30 0
-28 -203 30 0
-28 203 29 0
29 -192 -204 0
29 -191 204 0
-29 191 204 0
-29 192 -204 0
30 -194 -204 0
30 -193 204 0
-30 193 204 0
-30 194 -204 0
-31 201 32 0
-31 -201 39 0
31 -201 -39 0
31 201 -32 0
-32 202 33 0
-32 -202 36 0
32 -202 -36 0
32 202 -33 0
-33 203 35 0
-33 -203 34 0
33 -203 -34 0
33 203 -35 0
34 -179 -204 0
34 -178 204 0
-34 178 204 0
-34 179 -204 0
35 -177 -204 0
35 -176 204 0
-35 176 204 0
-35 177 -204 0
36 203 -37 0
36 -203 -38 0
-36 -203 38 0
-36 203 37 0
37 -181 -204 0
37 -180 204 0
-37 180 204 0
-37 181 -204 0
38 -183 -204 0
38 -182 204 0
-38 182 204 0
-38 183 -204 0
39 202 -40 0
39 -202 -43 0
-39 -202 43 0
-39 202 40 0
40 203 -41 0
40 -203 -42 0
-40 -203 42 0
-40 203 41 0
41 -185 -204 0
41 -184 204 0
-41 184 204 0
-41 185 -204 0
42 -187 -204 0
42 -186 204 0
-42 186 204 0
-42 187 -204 0
43 203 -44 0
43 -203 -45 0
-43 -203 45 0
-43 203 44 0
44 -189 -204 0
44 -188 204 0
-44 188 204 0
-44 189 -204 0
45 -191 -204 0
45 -190 204 0
-45 190 204 0
-45 191 -204 0
46 201 -47 0
46 -201 -53 0
-46 -201 53 0
-46 201 47 0
47 202 -48 0
47 -202 -51 0
-47 -202 51 0
-47 202 48 0
48 203 -49 0
48 -203 -50 0
-48 -203 50 0
-48 203 49 0
49 -174 -204 0
49 -173 204 0
-49 173 204 0
-49 174 -204 0
50 -176 -204 0
50 -175 204 0
-50 175 204 0
-50 176 -204 0
51 -203 -22 0
51 203 -52 0
-51 203 52 0
-51 -203 22 0
52 -178 -204 0
52 -177 204 0
-52 177 204 0
-52 178 -204 0
53 202 -54 0
53 -202 -55 0
-53 -202 55 0
-53 202 54 0
54 -203 -19 0
54 203 -23 0
-54 203 23 0
-54 -203 19 0
55 203 -20 0
55 -203 -26 0
-55 -203 26 0
-55 203 20 0
56 -57 -68 -74 -79 0
-56 79 0
-56 57 0
-56 74 0
-56 68 0
57 -58 -62 0
-57 58 0
-57 62 0
-58 201 59 0
-58 -201 60 0
58 -201 -60 0
58 201 -59 0
-59 -202 54 0
-59 202 51 0
59 202 -51 0
59 -202 -54 0
60 202 -55 0
60 -202 -61 0
-60 -202 61 0
-60 202 55 0
61 203 -27 0
61 -203 -29 0
-61 -203 29 0
-61 203 27 0
-62 201 67 0
-62 -201 63 0
62 -201 -63 0
62 201 -67 0
63 202 -28 0
63 -202 -64 0
-63 -202 64 0
-63 202 28 0
64 203 -65 0
64 -203 -66 0
-64 -203 66 0
-64 203 65 0
65 -196 -204 0
65 -195 204 0
-65 195 204 0
-65 196 -204 0
66 -198 -204 0
66 -197 204 0
-66 197 204 0
-66 198 -204 0
67 202 -18 0
67 -202 -25 0
-67 -202 25 0
-67 202 18 0
-68 201 69 0
-68 -201 70 0
68 -201 -70 0
68 201 -69 0
-69 -202 40 0
-69 202 36 0
69 202 -36 0
69 -202 -40 0
70 202 -43 0
70 -202 -71 0
-70 -202 71 0
-70 202 43 0
71 203 -72 0
71 -203 -73 0
-71 -203 73 0
-71 203 72 0
72 -193 -204 0
72 -192 204 0
-72 192 204 0
-72 193 -204 0
73 -195 -204 0
73 -194 204 0
-73 194 204 0
-73 195 -204 0
74 201 -24 0
74 -201 -75 0
-74 -201 75 0
-74 201 24 0
75 202 -64 0
75 -202 -76 0
-75 -202 76 0
-75 202 64 0
76 203 -77 0
76 -203 -78 0
-76 -203 78 0
-76 203 77 0
77 -200 -204 0
77 -199 204 0
-77 199 204 0
-77 200 -204 0
78 -202 -204 0
78 -201 204 0
-78 201 204 0
-78 202 -204 0
79 201 -70 0
79 -201 -80 0
-79 -201 80 0
-79 201 70 0
80 202 -81 0
80 -202 -84 0
-80 -202 84 0
-80 202 81 0
81 203 -82 0
81 -203 -83 0
-81 -203 83 0
-81 203 82 0
82 -197 -204 0
82 -196 204 0
-82 196 204 0
-82 197 -204 0
83 -199 -204 0
83 -198 204 0
-83 198 204 0
-83 199 -204 0
84 -202 -203 0
84 203 -85 0
84 -203 -204 0
-84 203 85 0
-84 202 -203 204 0
85 -201 -204 0
85 -200 204 0
-85 200 204 0
-85 201 -204 0
86 -87 -90 -97 -100 0
-86 100 0
-86 97 0
-86 87 0
-86 90 0
-87 -201 67 0
-87 201 88 0
87 -201 -67 0
87 201 -88 0
-88 -202 21 0
-88 202 89 0
88 -202 -21 0
88 202 -89 0
-89 -203 52 0
-89 203 50 0
89 203 -50 0
89 -203 -52 0
-90 201 94 0
-90 -201 91 0
90 -201 -91 0
90 201 -94 0
91 202 -92 0
91 -202 -93 0
-91 -202 93 0
-91 202 92 0
92 203 -73 0
92 -203 -82 0
-92 -203 82 0
-92 203 73 0
93 203 -83 0
93 -203 -85 0
-93 -203 85 0
-93 203 83 0
94 202 -95 0
94 -202 -96 0
-94 -202 96 0
-94 202 95 0
95 203 -42 0
95 -203 -44 0
-95 -203 44 0
-95 203 42 0
96 203 -45 0
96 -203 -72 0
-96 -203 72 0
-96 203 45 0
-97 -201 98 0
-97 201 53 0
97 201 -53 0
97 -201 -98 0
98 202 -61 0
98 -202 -99 0
-98 -202 99 0
-98 202 61 0
99 203 -30 0
99 -203 -65 0
-99 -203 65 0
-99 203 30 0
100 -101 -111 -113 -116 0
-100 116 0
-100 113 0
-100 101 0
-100 111 0
101 -102 -106 0
-101 102 0
-101 106 0
-102 -201 94 0
-102 201 103 0
102 -201 -94 0
102 201 -103 0
-103 202 105 0
-103 -202 104 0
103 -202 -104 0
103 202 -105 0
104 203 -38 0
104 -203 -41 0
-104 -203 41 0
-104 203 38 0
105 203 -34 0
105 -203 -37 0
-105 -203 37 0
-105 203 34 0
-106 201 107 0
-106 -201 110 0
106 -201 -110 0
106 201 -107 0
-107 -202 105 0
-107 202 108 0
107 -202 -105 0
107 202 -108 0
-108 -203 35 0
-108 203 109 0
108 -203 -35 0
108 203 -109 0
-109 174 204 0
-109 175 -204 0
109 -175 -204 0
109 -174 204 0
110 -202 -95 0
110 202 -104 0
-110 202 104 0
-110 -202 95 0
-111 -201 112 0
-111 201 110 0
111 201 -110 0
111 -201 -112 0
112 -202 -92 0
112 202 -96 0
-112 202 96 0
-112 -202 92 0
-113 -201 114 0
-113 201 60 0
113 201 -60 0
113 -201 -114 0
114 202 -99 0
114 -202 -115 0
-114 -202 115 0
-114 202 99 0
115 203 -66 0
115 -203 -77 0
-115 -203 77 0
-115 203 66 0
-116 -201 117 0
-116 201 39 0
116 201 -39 0
116 -201 -117 0
117 202 -71 0
117 -202 -81 0
-117 -202 81 0
-117 202 71 0
118 -119 -126 -129 -137 0
-118 137 0
-118 119 0
-118 129 0
-118 126 0
119 -120 -123 0
119 -201 -121 -123 0
-119 123 0
-119 120 121 0
-119 201 120 0
120 201 -112 0
-120 -201 0
-120 112 0
-121 202 122 0
-121 -203 204 122 0
-121 203 -204 122 0
121 -122 0
121 -202 203 204 0
121 -202 -203 -204 0
122 202 -93 0
-122 -202 0
-122 93 0
123 201 -98 0
123 -201 -124 0
-123 -201 124 0
-123 201 98 0
124 202 -115 0
124 -202 -125 0
-124 -202 125 0
-124 202 115 0
-125 202 203 -204 0
-125 201 203 204 0
125 -203 0
125 -201 204 0
125 -202 -204 0
-126 201 128 0
-126 202 127 128 0
126 -128 0
126 -201 -127 0
126 -201 -202 0
-127 203 204 0
127 -203 0
127 -204 0
128 201 -80 0
-128 -201 0
-128 80 0
129 -130 -135 0
129 -201 -130 -136 0
-129 130 0
-129 135 136 0
-129 201 135 0
-130 131 132 0
-130 201 131 0
130 -131 0
130 -201 -132 0
131 201 -63 0
-131 -201 0
-131 63 0
132 133 -134 0
-132 -133 0
-132 134 0
133 -202 203 204 0
-133 202 0
-133 -204 0
-133 -203 0
-134 202 76 0
134 -202 0
134 -76 0
135 201 -117 0
-135 -201 0
-135 117 0
136 -202 -203 0
136 202 -84 0
136 -202 -204 0
-136 202 84 0
-136 -202 203 204 0
137 -138 -140 -144 0
137 -139 -140 -144 0
-137 140 0
-137 144 0
-137 138 139 0
138 201 -114 0
-138 -201 0
-138 114 0
139 -201 -202 0
139 -201 204 0
139 -201 -203 0
-139 201 0
-139 202 203 -204 0
140 -141 -143 0
140 -201 -142 -143 0
-140 143 0
-140 141 142 0
-140 201 141 0
141 201 -91 0
-141 -201 0
-141 91 0
-142 202 204 0
-142 202 203 0
142 -202 0
142 -203 -204 0
-143 201 75 0
143 -201 0
143 -75 0
-144 201 145 0
-144 -200 201 146 0
144 -201 0
144 -145 -146 0
144 200 -145 0
145 -121 -124 -132 0
-145 132 0
-145 124 0
-145 121 0
146 -202 -136 -142 0
146 -125 -136 -142 0
-146 136 0
-146 142 0
-146 202 125 0
-147 -3 168 0
-147 148 159 168 0
147 -168 0
147 3 -148 0
147 3 -159 0
-148 120 123 149 151 0
148 -151 0
148 -149 0
148 -120 0
148 -123 0
149 -201 -150 0
-149 201 0
-149 150 0
-150 122 133 0
150 -122 0
150 -133 0
151 200 -46 0
151 200 -106 0
151 200 -152 0
-151 -200 0
-151 46 106 152 0
-152 153 156 157 0
152 -157 0
152 -156 0
152 -153 0
153 -201 -154 0
153 -201 -155 0
-153 201 0
-153 154 155 0
154 202 -84 0
-154 -202 0
-154 84 0
155 202 -134 0
155 203 -204 -134 0
-155 134 0
-155 -202 204 0
-155 -202 -203 0
-156 131 135 0
156 -131 0
156 -135 0
-157 138 -139 158 0
-157 138 143 158 0
157 -138 0
157 -158 0
157 139 -143 0
158 -201 202 -203 0
158 -201 202 204 0
-158 201 0
-158 -202 0
-158 203 -204 0
159 162 -164 0
159 -161 -164 0
159 -160 -164 0
-159 164 0
-159 160 161 -162 0
-160 -201 128 141 0
-160 124 128 141 0
160 -141 0
160 -128 0
160 201 -124 0
161 201 -150 0
161 201 -155 0
-161 -201 0
-161 150 155 0
162 -200 152 163 0
-162 200 0
-162 -152 0
-162 -163 0
-163 -201 0
-163 -202 0
-163 203 84 0
163 201 202 -84 0
163 201 202 -203 0
-164 16 62 165 167 0
164 -167 0
164 -16 0
164 -165 0
164 -62 0
-165 200 58 68 166 0
165 -200 0
165 -166 0
165 -68 0
165 -58 0
-166 97 102 113 0
166 -97 0
166 -102 0
166 -113 0
-167 31 87 111 116 0
167 -116 0
167 -31 0
167 -111 0
167 -87 0
-168 170 172 0
-168 -169 170 0
168 -170 0
168 169 -172 0
-169 200 3 0
169 -200 0
169 -3 0
170 -200 3 -171 0
170 200 3 -74 0
-170 -3 0
-170 -200 171 0
-170 200 74 0
171 201 202 203 -204 0
-171 204 0
-171 -203 0
-171 -201 0
-171 -202 0
-172 79 90 160 161 0
172 -79 0
172 -161 0
172 -160 0
172 -90 0
-205 0
2 0

